c description: Random 3-CNF over 14 variables and 56 clauses
p cnf 14 56
4 9 11 0
3 4 -12 0
3 6 -7 0
2 -5 9 0
6 -7 -10 0
5 8 10 0
-6 9 13 0
-4 9 -12 0
-8 9 12 0
-1 6 -14 0
6 -7 -14 0
-5 -7 -8 0
4 -9 13 0
-9 11 13 0
-3 -7 10 0
1 -8 -10 0
5 11 -12 0
1 6 -7 0
-5 -7 11 0
1 3 14 0
-3 -4 13 0
2 8 14 0
-1 -13 -14 0
1 -2 4 0
-2 9 -10 0
4 -5 -13 0
7 -8 14 0
-5 6 11 0
-7 9 12 0
-8 -10 11 0
-10 -13 -14 0
3 -11 -12 0
-4 -12 -13 0
1 2 -8 0
-2 9 -11 0
-1 7 -8 0
-2 -8 -14 0
6 -7 -8 0
1 -4 -5 0
3 8 11 0
-4 7 -11 0
-2 -3 -13 0
-1 -5 -12 0
-3 -7 -12 0
3 -9 -11 0
-1 9 -14 0
6 -12 14 0
9 12 14 0
-1 -3 7 0
-1 5 -6 0
-1 8 12 0
-8 9 11 0
3 7 14 0
3 5 10 0
-2 4 -7 0
-2 3 8 0